NAME simple_model
OBJSENSE MAX
ROWS
 N  OBJ
 L  c0      
COLUMNS
    x         OBJ       1
    x         c0        1
    y         OBJ       2
    y         c0        1
RHS
    RHS1      c0        1
BOUNDS
ENDATA
